\ Model p-center
\ LP format - for model browsing. Use MPS format to capture full model detail.
Minimize
  L
Subject To
 epigraph[0]: 2937.954830724942 x[0,1] + 2167.889181324078 x[0,2]
   + 581.5553312402108 x[0,3] + 152.7430841960231 x[0,4]
   + 47.15818326396547 x[0,5] + 4180.370169975344 x[0,6]
   + 3626.193431018835 x[0,7] + 2006.590535657432 x[0,8]
   + 4192.551845405159 x[0,9] - L <= 0
 epigraph[1]: 3491.766733016019 x[1,0] + 1585.128993936583 x[1,2]
   + 2850.178413827245 x[1,3] + 3406.34751981854 x[1,4]
   + 3460.191767702006 x[1,5] + 1537.496438714628 x[1,6]
   + 1967.988746040021 x[1,7] + 1419.154357878367 x[1,8]
   + 1550.247979264528 x[1,9] - L <= 0
 epigraph[2]: 1727.321268688737 x[2,0] + 1062.675196007679 x[2,1]
   + 1266.655303965911 x[2,3] + 1630.024009211946 x[2,4]
   + 1695.023653995856 x[2,5] + 1788.742051513012 x[2,6]
   + 1163.964021417566 x[2,7] + 245.4553483138357 x[2,8]
   + 1799.173857083274 x[2,9] - L <= 0
 epigraph[3]: 526.4116818786604 x[3,0] + 2170.733032567111 x[3,1]
   + 1438.987033313924 x[3,2] + 431.6812260631506 x[3,4]
   + 492.3823532090692 x[3,5] + 3274.983091099541 x[3,6]
   + 2760.689377865726 x[3,7] + 1290.326303899561 x[3,8]
   + 3286.169596389251 x[3,9] - L <= 0
 epigraph[4]: 132.0140520837034 x[4,0] + 2477.12230909478 x[4,1]
   + 1768.139656663034 x[4,2] + 412.1803564224175 x[4,3]
   + 91.5054057537661 x[4,5] + 3538.425141412734 x[4,6]
   + 3025.44038149692 x[4,7] + 1640.038727430684 x[4,8]
   + 3549.076579598323 x[4,9] - L <= 0
 epigraph[5]: 38.20409491849527 x[5,0] + 2358.592480214071 x[5,1]
   + 1723.425720893806 x[5,2] + 440.6774747795408 x[5,3]
   + 85.77110292357351 x[5,4] + 3361.909697128865 x[5,6]
   + 2904.207733866383 x[5,7] + 1595.505114446354 x[5,8]
   + 3371.811998220977 x[5,9] - L <= 0
 epigraph[6]: 3913.815192100499 x[6,0] + 1211.154604502254 x[6,1]
   + 2101.828366646613 x[6,2] + 3387.350678187955 x[6,3]
   + 3832.983774016438 x[6,4] + 3885.248209129707 x[6,5]
   + 1413.585911352746 x[6,7] + 2110.239403579994 x[6,8]
   + 12.27976760532761 x[6,9] - L <= 0
 epigraph[7]: 3117.205836501677 x[7,0] + 1423.432953864678 x[7,1]
   + 1255.792912674647 x[7,2] + 2621.788058951793 x[7,3]
   + 3009.15464363935 x[7,4] + 3081.692787668587 x[7,5]
   + 1297.929631310952 x[7,6] + 1438.766423662258 x[7,8]
   + 1306.992341838849 x[7,9] - L <= 0
 epigraph[8]: 2050.096736971289 x[8,0] + 1219.958680386624 x[8,1]
   + 314.7400807569923 x[8,2] + 1456.399994164803 x[8,3]
   + 1938.70215197225 x[8,4] + 2012.152747529615 x[8,5]
   + 2302.82930991771 x[8,6] + 1709.98135554654 x[8,7]
   + 2315.97173719688 x[8,9] - L <= 0
 epigraph[9]: 3794.077055841421 x[9,0] + 1180.398830411725 x[9,1]
   + 2043.453664866665 x[9,2] + 3285.36178635248 x[9,3]
   + 3716.074990576238 x[9,4] + 3766.502042567076 x[9,5]
   + 11.86949599796129 x[9,6] + 1375.897983383799 x[9,7]
   + 2051.376449884821 x[9,8] - L <= 0
 p: y[0] + y[1] + y[2] + y[3] + y[4] + y[5] + y[6] + y[7] + y[8] + y[9]
   = 3
 x<y[0,0]: x[0,0] - y[0] <= 0
 x<y[0,1]: x[0,1] - y[1] <= 0
 x<y[0,2]: x[0,2] - y[2] <= 0
 x<y[0,3]: x[0,3] - y[3] <= 0
 x<y[0,4]: x[0,4] - y[4] <= 0
 x<y[0,5]: x[0,5] - y[5] <= 0
 x<y[0,6]: x[0,6] - y[6] <= 0
 x<y[0,7]: x[0,7] - y[7] <= 0
 x<y[0,8]: x[0,8] - y[8] <= 0
 x<y[0,9]: x[0,9] - y[9] <= 0
 x<y[1,0]: x[1,0] - y[0] <= 0
 x<y[1,1]: x[1,1] - y[1] <= 0
 x<y[1,2]: x[1,2] - y[2] <= 0
 x<y[1,3]: x[1,3] - y[3] <= 0
 x<y[1,4]: x[1,4] - y[4] <= 0
 x<y[1,5]: x[1,5] - y[5] <= 0
 x<y[1,6]: x[1,6] - y[6] <= 0
 x<y[1,7]: x[1,7] - y[7] <= 0
 x<y[1,8]: x[1,8] - y[8] <= 0
 x<y[1,9]: x[1,9] - y[9] <= 0
 x<y[2,0]: x[2,0] - y[0] <= 0
 x<y[2,1]: x[2,1] - y[1] <= 0
 x<y[2,2]: x[2,2] - y[2] <= 0
 x<y[2,3]: x[2,3] - y[3] <= 0
 x<y[2,4]: x[2,4] - y[4] <= 0
 x<y[2,5]: x[2,5] - y[5] <= 0
 x<y[2,6]: x[2,6] - y[6] <= 0
 x<y[2,7]: x[2,7] - y[7] <= 0
 x<y[2,8]: x[2,8] - y[8] <= 0
 x<y[2,9]: x[2,9] - y[9] <= 0
 x<y[3,0]: x[3,0] - y[0] <= 0
 x<y[3,1]: x[3,1] - y[1] <= 0
 x<y[3,2]: x[3,2] - y[2] <= 0
 x<y[3,3]: x[3,3] - y[3] <= 0
 x<y[3,4]: x[3,4] - y[4] <= 0
 x<y[3,5]: x[3,5] - y[5] <= 0
 x<y[3,6]: x[3,6] - y[6] <= 0
 x<y[3,7]: x[3,7] - y[7] <= 0
 x<y[3,8]: x[3,8] - y[8] <= 0
 x<y[3,9]: x[3,9] - y[9] <= 0
 x<y[4,0]: x[4,0] - y[0] <= 0
 x<y[4,1]: x[4,1] - y[1] <= 0
 x<y[4,2]: x[4,2] - y[2] <= 0
 x<y[4,3]: x[4,3] - y[3] <= 0
 x<y[4,4]: x[4,4] - y[4] <= 0
 x<y[4,5]: x[4,5] - y[5] <= 0
 x<y[4,6]: x[4,6] - y[6] <= 0
 x<y[4,7]: x[4,7] - y[7] <= 0
 x<y[4,8]: x[4,8] - y[8] <= 0
 x<y[4,9]: x[4,9] - y[9] <= 0
 x<y[5,0]: x[5,0] - y[0] <= 0
 x<y[5,1]: x[5,1] - y[1] <= 0
 x<y[5,2]: x[5,2] - y[2] <= 0
 x<y[5,3]: x[5,3] - y[3] <= 0
 x<y[5,4]: x[5,4] - y[4] <= 0
 x<y[5,5]: x[5,5] - y[5] <= 0
 x<y[5,6]: x[5,6] - y[6] <= 0
 x<y[5,7]: x[5,7] - y[7] <= 0
 x<y[5,8]: x[5,8] - y[8] <= 0
 x<y[5,9]: x[5,9] - y[9] <= 0
 x<y[6,0]: x[6,0] - y[0] <= 0
 x<y[6,1]: x[6,1] - y[1] <= 0
 x<y[6,2]: x[6,2] - y[2] <= 0
 x<y[6,3]: x[6,3] - y[3] <= 0
 x<y[6,4]: x[6,4] - y[4] <= 0
 x<y[6,5]: x[6,5] - y[5] <= 0
 x<y[6,6]: x[6,6] - y[6] <= 0
 x<y[6,7]: x[6,7] - y[7] <= 0
 x<y[6,8]: x[6,8] - y[8] <= 0
 x<y[6,9]: x[6,9] - y[9] <= 0
 x<y[7,0]: x[7,0] - y[0] <= 0
 x<y[7,1]: x[7,1] - y[1] <= 0
 x<y[7,2]: x[7,2] - y[2] <= 0
 x<y[7,3]: x[7,3] - y[3] <= 0
 x<y[7,4]: x[7,4] - y[4] <= 0
 x<y[7,5]: x[7,5] - y[5] <= 0
 x<y[7,6]: x[7,6] - y[6] <= 0
 x<y[7,7]: x[7,7] - y[7] <= 0
 x<y[7,8]: x[7,8] - y[8] <= 0
 x<y[7,9]: x[7,9] - y[9] <= 0
 x<y[8,0]: x[8,0] - y[0] <= 0
 x<y[8,1]: x[8,1] - y[1] <= 0
 x<y[8,2]: x[8,2] - y[2] <= 0
 x<y[8,3]: x[8,3] - y[3] <= 0
 x<y[8,4]: x[8,4] - y[4] <= 0
 x<y[8,5]: x[8,5] - y[5] <= 0
 x<y[8,6]: x[8,6] - y[6] <= 0
 x<y[8,7]: x[8,7] - y[7] <= 0
 x<y[8,8]: x[8,8] - y[8] <= 0
 x<y[8,9]: x[8,9] - y[9] <= 0
 x<y[9,0]: x[9,0] - y[0] <= 0
 x<y[9,1]: x[9,1] - y[1] <= 0
 x<y[9,2]: x[9,2] - y[2] <= 0
 x<y[9,3]: x[9,3] - y[3] <= 0
 x<y[9,4]: x[9,4] - y[4] <= 0
 x<y[9,5]: x[9,5] - y[5] <= 0
 x<y[9,6]: x[9,6] - y[6] <= 0
 x<y[9,7]: x[9,7] - y[7] <= 0
 x<y[9,8]: x[9,8] - y[8] <= 0
 x<y[9,9]: x[9,9] - y[9] <= 0
 sumx[0]: x[0,0] + x[0,1] + x[0,2] + x[0,3] + x[0,4] + x[0,5] + x[0,6]
   + x[0,7] + x[0,8] + x[0,9] = 1
 sumx[1]: x[1,0] + x[1,1] + x[1,2] + x[1,3] + x[1,4] + x[1,5] + x[1,6]
   + x[1,7] + x[1,8] + x[1,9] = 1
 sumx[2]: x[2,0] + x[2,1] + x[2,2] + x[2,3] + x[2,4] + x[2,5] + x[2,6]
   + x[2,7] + x[2,8] + x[2,9] = 1
 sumx[3]: x[3,0] + x[3,1] + x[3,2] + x[3,3] + x[3,4] + x[3,5] + x[3,6]
   + x[3,7] + x[3,8] + x[3,9] = 1
 sumx[4]: x[4,0] + x[4,1] + x[4,2] + x[4,3] + x[4,4] + x[4,5] + x[4,6]
   + x[4,7] + x[4,8] + x[4,9] = 1
 sumx[5]: x[5,0] + x[5,1] + x[5,2] + x[5,3] + x[5,4] + x[5,5] + x[5,6]
   + x[5,7] + x[5,8] + x[5,9] = 1
 sumx[6]: x[6,0] + x[6,1] + x[6,2] + x[6,3] + x[6,4] + x[6,5] + x[6,6]
   + x[6,7] + x[6,8] + x[6,9] = 1
 sumx[7]: x[7,0] + x[7,1] + x[7,2] + x[7,3] + x[7,4] + x[7,5] + x[7,6]
   + x[7,7] + x[7,8] + x[7,9] = 1
 sumx[8]: x[8,0] + x[8,1] + x[8,2] + x[8,3] + x[8,4] + x[8,5] + x[8,6]
   + x[8,7] + x[8,8] + x[8,9] = 1
 sumx[9]: x[9,0] + x[9,1] + x[9,2] + x[9,3] + x[9,4] + x[9,5] + x[9,6]
   + x[9,7] + x[9,8] + x[9,9] = 1
Bounds
Binaries
 x[0,0] x[0,1] x[0,2] x[0,3] x[0,4] x[0,5] x[0,6] x[0,7] x[0,8] x[0,9]
 x[1,0] x[1,1] x[1,2] x[1,3] x[1,4] x[1,5] x[1,6] x[1,7] x[1,8] x[1,9]
 x[2,0] x[2,1] x[2,2] x[2,3] x[2,4] x[2,5] x[2,6] x[2,7] x[2,8] x[2,9]
 x[3,0] x[3,1] x[3,2] x[3,3] x[3,4] x[3,5] x[3,6] x[3,7] x[3,8] x[3,9]
 x[4,0] x[4,1] x[4,2] x[4,3] x[4,4] x[4,5] x[4,6] x[4,7] x[4,8] x[4,9]
 x[5,0] x[5,1] x[5,2] x[5,3] x[5,4] x[5,5] x[5,6] x[5,7] x[5,8] x[5,9]
 x[6,0] x[6,1] x[6,2] x[6,3] x[6,4] x[6,5] x[6,6] x[6,7] x[6,8] x[6,9]
 x[7,0] x[7,1] x[7,2] x[7,3] x[7,4] x[7,5] x[7,6] x[7,7] x[7,8] x[7,9]
 x[8,0] x[8,1] x[8,2] x[8,3] x[8,4] x[8,5] x[8,6] x[8,7] x[8,8] x[8,9]
 x[9,0] x[9,1] x[9,2] x[9,3] x[9,4] x[9,5] x[9,6] x[9,7] x[9,8] x[9,9] y[0]
 y[1] y[2] y[3] y[4] y[5] y[6] y[7] y[8] y[9]
End
